Maximize
F - f1 - f2

Subject to
F - 8y227 - 4y245 - 2y46 - 6y198 - 8y264 - 4y220 - 8y149 - 8y106 - 6y36 - 2y64 - 6y109 - 4y97 - 6y190 - 8y22 - 4y68 - 2y73 - 8y266 - 8y169 - 8y254 - 6y259 - 4y170 - 8y43 - 4y230 - 6y172 = 0
f1 - 0.005014s227 - 0.005014s245 - 0.005014s46 - 0.005014s198 - 0.005014s264 - 0.005014s220 - 0.005014s149 - 0.005014s106 - 0.005014s36 - 0.005014s64 - 0.005014s109 - 0.005014s97 - 0.005014s190 - 0.005014s22 - 0.005014s68 - 0.005014s73 - 0.005014s266 - 0.005014s169 - 0.005014s254 - 0.005014s259 - 0.005014s170 - 0.005014s43 - 0.005014s230 - 0.005014s172  = 0
f2 - 1.01y227 - 0.69y245 - 0.71y46 - 1.17y198 - 0.90y264 - 0.74y220 - 0.76y149 - 0.57y106 - 0.52y36 - 0.86y64 - 0.98y109 - 2.21y97 - 0.29y190 - 0.41y22 - 0.21y68 - 1.05y73 - 0.44y266 - 0.03y169 - 1.05y254 - 0.01y259 - 0.45y170 - 1.45y43 - 0.15y230 - 0.22y172 = 0

x243x245x1 + x243x264x1 + x243x220x1 + x243x149x1 + x243x106x1 + x243x36x1 + x243x109x1 + x243x190x1 + x243x266x1 + x243x254x1 + x243x170x1 
<= 1
x184x245x1 + x184x264x1 + x184x220x1 + x184x149x1 + x184x106x1 + x184x36x1 + x184x109x1 + x184x190x1 + x184x266x1 + x184x254x1 + x184x170x1 
<= 2
x171x254x1 + x171x170x1 
<= 1
x154x254x1 
<= 1
x58x264x1 + x58x149x1 + x58x106x1 + x58x36x1 + x58x109x1 + x58x190x1 + x58x266x1 + x58x254x1 + x58x170x1 
<= 2
x3x245x1 + x3x264x1 + x3x220x1 + x3x149x1 + x3x106x1 + x3x36x1 + x3x109x1 + x3x190x1 + x3x266x1 + x3x254x1 + x3x170x1 
<= 1

x208x227x2 + x208x245x2 + x208x46x2 + x208x264x2 + x208x106x2 + x208x64x2 + x208x22x2 + x208x68x2 + x208x169x2 + x208x170x2 
<= 1
x226x245x2 + x226x46x2 + x226x264x2 + x226x106x2 + x226x64x2 + x226x22x2 + x226x68x2 + x226x169x2 + x226x170x2 
<= 2
x246x264x2 + x246x106x2 + x246x64x2 + x246x22x2 + x246x68x2 + x246x169x2 + x246x170x2 
<= 1
x93x22x2 + x93x68x2 + x93x169x2 + x93x170x2 
<= 1
x85x68x2 + x85x170x2 
<= 1
x86x227x2 + x86x245x2 + x86x46x2 + x86x264x2 + x86x106x2 + x86x64x2 + x86x22x2 + x86x68x2 + x86x169x2 + x86x170x2 
<= 2
x208x227x3 + x208x198x3 + x208x64x3 + x208x109x3 + x208x97x3 + x208x190x3 + x208x73x3 + x208x169x3 + x208x259x3 + x208x43x3 + x208x230x3 + x208x172x3 
<= 1
x243x227x3 + x243x198x3 + x243x64x3 + x243x109x3 + x243x97x3 + x243x190x3 + x243x73x3 + x243x169x3 + x243x259x3 + x243x43x3 + x243x230x3 + x243x172x3 
<= 1
x246x64x3 + x246x109x3 + x246x97x3 + x246x190x3 + x246x73x3 + x246x169x3 + x246x259x3 + x246x43x3 + x246x230x3 + x246x172x3 
<= 1
x93x169x3 + x93x259x3 + x93x43x3 + x93x230x3 + x93x172x3 
<= 1
x135x73x3 + x135x169x3 + x135x259x3 + x135x43x3 + x135x230x3 + x135x172x3 
<= 2
x85x259x3 + x85x43x3 + x85x230x3 + x85x172x3 
<= 1
x171x169x3 + x171x259x3 + x171x43x3 + x171x230x3 + x171x172x3 
<= 1

x208x227x2 + x86x227x2 
- x227x0x2
- x227x245x2 - x227x46x2 - x227x106x2 - x227x64x2 - x227x22x2 - x227x68x2 - x227x169x2 - x227x170x2 
= 0
x208x227x3 + x243x227x3 
- x227x0x3
- x227x198x3 - x227x64x3 - x227x109x3 - x227x97x3 - x227x190x3 - x227x73x3 - x227x169x3 - x227x259x3 - x227x43x3 - x227x230x3 - x227x172x3 
= 0

x243x245x1 + x184x245x1 + x3x245x1 
- x245x0x1
- x245x106x1 - x245x36x1 - x245x109x1 - x245x190x1 - x245x266x1 - x245x254x1 - x245x170x1 
= 0
x208x245x2 + x226x245x2 + x86x245x2 + x227x245x2 
- x245x0x2
- x245x106x2 - x245x22x2 - x245x68x2 - x245x169x2 - x245x170x2 
= 0



x208x46x2 + x226x46x2 + x86x46x2 + x227x46x2 
- x46x0x2
- x46x64x2 - x46x22x2 - x46x68x2 - x46x169x2 - x46x170x2 
= 0




x208x198x3 + x243x198x3 + x227x198x3 
- x198x0x3
- x198x109x3 - x198x97x3 - x198x190x3 - x198x73x3 - x198x169x3 - x198x259x3 - x198x43x3 - x198x230x3 - x198x172x3 
= 0

x243x264x1 + x184x264x1 + x58x264x1 + x3x264x1 
- x264x0x1
- x264x149x1 - x264x266x1 - x264x254x1 - x264x170x1 
= 0
x208x264x2 + x226x264x2 + x246x264x2 + x86x264x2 
- x264x0x2
- x264x64x2 - x264x22x2 - x264x68x2 - x264x169x2 - x264x170x2 
= 0


x243x220x1 + x184x220x1 + x3x220x1 
- x220x0x1
- x220x106x1 - x220x36x1 - x220x109x1 - x220x190x1 - x220x266x1 - x220x254x1 - x220x170x1 
= 0



x243x149x1 + x184x149x1 + x58x149x1 + x3x149x1 + x264x149x1 
- x149x0x1
- x149x266x1 - x149x254x1 - x149x170x1 
= 0



x243x106x1 + x184x106x1 + x58x106x1 + x3x106x1 + x245x106x1 + x220x106x1 
- x106x0x1
- x106x190x1 - x106x266x1 - x106x254x1 - x106x170x1 
= 0
x208x106x2 + x226x106x2 + x246x106x2 + x86x106x2 + x227x106x2 + x245x106x2 
- x106x0x2
- x106x22x2 - x106x68x2 - x106x169x2 - x106x170x2 
= 0


x243x36x1 + x184x36x1 + x58x36x1 + x3x36x1 + x245x36x1 + x220x36x1 
- x36x0x1
- x36x190x1 - x36x266x1 - x36x254x1 - x36x170x1 
= 0




x208x64x2 + x226x64x2 + x246x64x2 + x86x64x2 + x227x64x2 + x46x64x2 + x264x64x2 
- x64x0x2
- x64x22x2 - x64x68x2 - x64x169x2 
= 0
x208x64x3 + x243x64x3 + x246x64x3 + x227x64x3 
- x64x0x3
- x64x169x3 - x64x230x3 - x64x172x3 
= 0

x243x109x1 + x184x109x1 + x58x109x1 + x3x109x1 + x245x109x1 + x220x109x1 
- x109x0x1
- x109x266x1 - x109x254x1 - x109x170x1 
= 0

x208x109x3 + x243x109x3 + x246x109x3 + x227x109x3 + x198x109x3 
- x109x0x3
- x109x73x3 - x109x169x3 - x109x259x3 - x109x43x3 - x109x230x3 - x109x172x3 
= 0



x208x97x3 + x243x97x3 + x246x97x3 + x227x97x3 + x198x97x3 
- x97x0x3
- x97x43x3 - x97x172x3 
= 0

x243x190x1 + x184x190x1 + x58x190x1 + x3x190x1 + x245x190x1 + x220x190x1 + x106x190x1 + x36x190x1 
- x190x0x1
- x190x266x1 - x190x254x1 - x190x170x1 
= 0

x208x190x3 + x243x190x3 + x246x190x3 + x227x190x3 + x198x190x3 
- x190x0x3
- x190x169x3 - x190x259x3 - x190x43x3 - x190x230x3 - x190x172x3 
= 0


x208x22x2 + x226x22x2 + x246x22x2 + x93x22x2 + x86x22x2 + x227x22x2 + x245x22x2 + x46x22x2 + x264x22x2 + x106x22x2 + x64x22x2 
- x22x0x2
- x22x68x2 
= 0



x208x68x2 + x226x68x2 + x246x68x2 + x93x68x2 + x85x68x2 + x86x68x2 + x227x68x2 + x245x68x2 + x46x68x2 + x264x68x2 + x106x68x2 + x64x68x2 + x22x68x2 
- x68x0x2

= 0




x208x73x3 + x243x73x3 + x246x73x3 + x135x73x3 + x227x73x3 + x198x73x3 + x109x73x3 
- x73x0x3
- x73x43x3 - x73x172x3 
= 0

x243x266x1 + x184x266x1 + x58x266x1 + x3x266x1 + x245x266x1 + x264x266x1 + x220x266x1 + x149x266x1 + x106x266x1 + x36x266x1 + x109x266x1 + x190x266x1 
- x266x0x1
- x266x170x1 
= 0




x208x169x2 + x226x169x2 + x246x169x2 + x93x169x2 + x86x169x2 + x227x169x2 + x245x169x2 + x46x169x2 + x264x169x2 + x106x169x2 + x64x169x2 
- x169x0x2

= 0
x208x169x3 + x243x169x3 + x246x169x3 + x93x169x3 + x135x169x3 + x171x169x3 + x227x169x3 + x198x169x3 + x64x169x3 + x109x169x3 + x190x169x3 
- x169x0x3

= 0

x243x254x1 + x184x254x1 + x171x254x1 + x154x254x1 + x58x254x1 + x3x254x1 + x245x254x1 + x264x254x1 + x220x254x1 + x149x254x1 + x106x254x1 + x36x254x1 + x109x254x1 + x190x254x1 
- x254x0x1

= 0





x208x259x3 + x243x259x3 + x246x259x3 + x93x259x3 + x135x259x3 + x85x259x3 + x171x259x3 + x227x259x3 + x198x259x3 + x109x259x3 + x190x259x3 
- x259x0x3
- x259x172x3 
= 0

x243x170x1 + x184x170x1 + x171x170x1 + x58x170x1 + x3x170x1 + x245x170x1 + x264x170x1 + x220x170x1 + x149x170x1 + x106x170x1 + x36x170x1 + x109x170x1 + x190x170x1 + x266x170x1 
- x170x0x1

= 0
x208x170x2 + x226x170x2 + x246x170x2 + x93x170x2 + x85x170x2 + x86x170x2 + x227x170x2 + x245x170x2 + x46x170x2 + x264x170x2 + x106x170x2 
- x170x0x2

= 0




x208x43x3 + x243x43x3 + x246x43x3 + x93x43x3 + x135x43x3 + x85x43x3 + x171x43x3 + x227x43x3 + x198x43x3 + x109x43x3 + x97x43x3 + x190x43x3 + x73x43x3 
- x43x0x3

= 0



x208x230x3 + x243x230x3 + x246x230x3 + x93x230x3 + x135x230x3 + x85x230x3 + x171x230x3 + x227x230x3 + x198x230x3 + x64x230x3 + x109x230x3 + x190x230x3 
- x230x0x3
- x230x172x3 
= 0



x208x172x3 + x243x172x3 + x246x172x3 + x93x172x3 + x135x172x3 + x85x172x3 + x171x172x3 + x227x172x3 + x198x172x3 + x64x172x3 + x109x172x3 + x97x172x3 + x190x172x3 + x73x172x3 + x259x172x3 + x230x172x3 
- x172x0x3

= 0

1y227 - x208x227x2 - x86x227x2 = 0
1y227 - x208x227x3 - x243x227x3 = 0
1y245 - x243x245x1 - x184x245x1 - x3x245x1 = 0
1y245 - x208x245x2 - x226x245x2 - x86x245x2 - x227x245x2 = 0
2y46 - x208x46x2 - x226x46x2 - x86x46x2 - x227x46x2 = 0
2y198 - x208x198x3 - x243x198x3 - x227x198x3 = 0
1y264 - x243x264x1 - x184x264x1 - x58x264x1 - x3x264x1 = 0
1y264 - x208x264x2 - x226x264x2 - x246x264x2 - x86x264x2 = 0
2y220 - x243x220x1 - x184x220x1 - x3x220x1 = 0
2y149 - x243x149x1 - x184x149x1 - x58x149x1 - x3x149x1 - x264x149x1 = 0
1y106 - x243x106x1 - x184x106x1 - x58x106x1 - x3x106x1 - x245x106x1 - x220x106x1 = 0
1y106 - x208x106x2 - x226x106x2 - x246x106x2 - x86x106x2 - x227x106x2 - x245x106x2 = 0
2y36 - x243x36x1 - x184x36x1 - x58x36x1 - x3x36x1 - x245x36x1 - x220x36x1 = 0
1y64 - x208x64x2 - x226x64x2 - x246x64x2 - x86x64x2 - x227x64x2 - x46x64x2 - x264x64x2 = 0
1y64 - x208x64x3 - x243x64x3 - x246x64x3 - x227x64x3 = 0
1y109 - x243x109x1 - x184x109x1 - x58x109x1 - x3x109x1 - x245x109x1 - x220x109x1 = 0
1y109 - x208x109x3 - x243x109x3 - x246x109x3 - x227x109x3 - x198x109x3 = 0
2y97 - x208x97x3 - x243x97x3 - x246x97x3 - x227x97x3 - x198x97x3 = 0
1y190 - x243x190x1 - x184x190x1 - x58x190x1 - x3x190x1 - x245x190x1 - x220x190x1 - x106x190x1 - x36x190x1 = 0
1y190 - x208x190x3 - x243x190x3 - x246x190x3 - x227x190x3 - x198x190x3 = 0
2y22 - x208x22x2 - x226x22x2 - x246x22x2 - x93x22x2 - x86x22x2 - x227x22x2 - x245x22x2 - x46x22x2 - x264x22x2 - x106x22x2 - x64x22x2 = 0
2y68 - x208x68x2 - x226x68x2 - x246x68x2 - x93x68x2 - x85x68x2 - x86x68x2 - x227x68x2 - x245x68x2 - x46x68x2 - x264x68x2 - x106x68x2 - x64x68x2 - x22x68x2 = 0
2y73 - x208x73x3 - x243x73x3 - x246x73x3 - x135x73x3 - x227x73x3 - x198x73x3 - x109x73x3 = 0
2y266 - x243x266x1 - x184x266x1 - x58x266x1 - x3x266x1 - x245x266x1 - x264x266x1 - x220x266x1 - x149x266x1 - x106x266x1 - x36x266x1 - x109x266x1 - x190x266x1 = 0
1y169 - x208x169x2 - x226x169x2 - x246x169x2 - x93x169x2 - x86x169x2 - x227x169x2 - x245x169x2 - x46x169x2 - x264x169x2 - x106x169x2 - x64x169x2 = 0
1y169 - x208x169x3 - x243x169x3 - x246x169x3 - x93x169x3 - x135x169x3 - x171x169x3 - x227x169x3 - x198x169x3 - x64x169x3 - x109x169x3 - x190x169x3 = 0
2y254 - x243x254x1 - x184x254x1 - x171x254x1 - x154x254x1 - x58x254x1 - x3x254x1 - x245x254x1 - x264x254x1 - x220x254x1 - x149x254x1 - x106x254x1 - x36x254x1 - x109x254x1 - x190x254x1 = 0
2y259 - x208x259x3 - x243x259x3 - x246x259x3 - x93x259x3 - x135x259x3 - x85x259x3 - x171x259x3 - x227x259x3 - x198x259x3 - x109x259x3 - x190x259x3 = 0
1y170 - x243x170x1 - x184x170x1 - x171x170x1 - x58x170x1 - x3x170x1 - x245x170x1 - x264x170x1 - x220x170x1 - x149x170x1 - x106x170x1 - x36x170x1 - x109x170x1 - x190x170x1 - x266x170x1 = 0
1y170 - x208x170x2 - x226x170x2 - x246x170x2 - x93x170x2 - x85x170x2 - x86x170x2 - x227x170x2 - x245x170x2 - x46x170x2 - x264x170x2 - x106x170x2 = 0
2y43 - x208x43x3 - x243x43x3 - x246x43x3 - x93x43x3 - x135x43x3 - x85x43x3 - x171x43x3 - x227x43x3 - x198x43x3 - x109x43x3 - x97x43x3 - x190x43x3 - x73x43x3 = 0
2y230 - x208x230x3 - x243x230x3 - x246x230x3 - x93x230x3 - x135x230x3 - x85x230x3 - x171x230x3 - x227x230x3 - x198x230x3 - x64x230x3 - x109x230x3 - x190x230x3 = 0
2y172 - x208x172x3 - x243x172x3 - x246x172x3 - x93x172x3 - x135x172x3 - x85x172x3 - x171x172x3 - x227x172x3 - x198x172x3 - x64x172x3 - x109x172x3 - x97x172x3 - x190x172x3 - x73x172x3 - x259x172x3 - x230x172x3 = 0

s208 - s227 + 7.782333z208z227z2 <= 6.31
s208 - s227 + 7.782333z208z227z3 <= 6.31
s208 - s245 + 7.811438z208z245z2 <= 6.31
s208 - s46 + 7.777213z208z46z2 <= 6.31
s208 - s198 + 7.807815z208z198z3 <= 6.31
s208 - s264 + 7.726493z208z264z2 <= 6.31
s208 - s106 + 7.869910z208z106z2 <= 6.31
s208 - s64 + 7.730707z208z64z2 <= 6.31
s208 - s64 + 7.730707z208z64z3 <= 6.31
s208 - s109 + 7.862002z208z109z3 <= 6.31
s208 - s97 + 7.718314z208z97z3 <= 6.31
s208 - s190 + 7.912932z208z190z3 <= 6.31
s208 - s22 + 7.810645z208z22z2 <= 6.31
s208 - s68 + 7.852965z208z68z2 <= 6.31
s208 - s73 + 7.887586z208z73z3 <= 6.31
s208 - s169 + 7.953921z208z169z2 <= 6.31
s208 - s169 + 7.953921z208z169z3 <= 6.31
s208 - s259 + 7.990648z208z259z3 <= 6.31
s208 - s170 + 7.974205z208z170z2 <= 6.31
s208 - s43 + 7.855238z208z43z3 <= 6.31
s208 - s230 + 8.006832z208z230z3 <= 6.31
s208 - s172 + 8.013497z208z172z3 <= 6.31
s226 - s245 + 7.898039z226z245z2 <= 6.48
s226 - s46 + 7.842364z226z46z2 <= 6.48
s226 - s264 + 7.764899z226z264z2 <= 6.48
s226 - s106 + 7.970990z226z106z2 <= 6.48
s226 - s64 + 7.760255z226z64z2 <= 6.48
s226 - s22 + 7.857264z226z22z2 <= 6.48
s226 - s68 + 7.907299z226z68z2 <= 6.48
s226 - s169 + 8.035812z226z169z2 <= 6.48
s226 - s170 + 8.097459z226z170z2 <= 6.48
s243 - s227 + 7.865726z243z227z3 <= 6.57
s243 - s245 + 7.892663z243z245z1 <= 6.57
s243 - s198 + 7.900611z243z198z3 <= 6.57
s243 - s264 + 7.827049z243z264z1 <= 6.57
s243 - s220 + 7.925713z243z220z1 <= 6.57
s243 - s149 + 7.846380z243z149z1 <= 6.57
s243 - s106 + 7.952842z243z106z1 <= 6.57
s243 - s36 + 7.953775z243z36z1 <= 6.57
s243 - s64 + 7.838983z243z64z3 <= 6.57
s243 - s109 + 7.955577z243z109z1 <= 6.57
s243 - s109 + 7.955577z243z109z3 <= 6.57
s243 - s97 + 7.860220z243z97z3 <= 6.57
s243 - s190 + 7.994901z243z190z1 <= 6.57
s243 - s190 + 7.994901z243z190z3 <= 6.57
s243 - s73 + 7.987634z243z73z3 <= 6.57
s243 - s266 + 8.048645z243z266z1 <= 6.57
s243 - s169 + 8.035158z243z169z3 <= 6.57
s243 - s254 + 7.996109z243z254z1 <= 6.57
s243 - s259 + 8.073426z243z259z3 <= 6.57
s243 - s170 + 8.064477z243z170z1 <= 6.57
s243 - s43 + 7.969249z243z43z3 <= 6.57
s243 - s230 + 8.092999z243z230z3 <= 6.57
s243 - s172 + 8.101676z243z172z3 <= 6.57
s246 - s264 + 8.038304z246z264z2 <= 6.65
s246 - s106 + 8.127840z246z106z2 <= 6.65
s246 - s64 + 8.050719z246z64z2 <= 6.65
s246 - s64 + 8.050719z246z64z3 <= 6.65
s246 - s109 + 8.104493z246z109z3 <= 6.65
s246 - s97 + 7.944128z246z97z3 <= 6.65
s246 - s190 + 8.173702z246z190z3 <= 6.65
s246 - s22 + 8.109171z246z22z2 <= 6.65
s246 - s68 + 8.142835z246z68z2 <= 6.65
s246 - s73 + 8.124804z246z73z3 <= 6.65
s246 - s169 + 8.220320z246z169z2 <= 6.65
s246 - s169 + 8.220320z246z169z3 <= 6.65
s246 - s259 + 8.247376z246z259z3 <= 6.65
s246 - s170 + 8.218366z246z170z2 <= 6.65
s246 - s43 + 8.086099z246z43z3 <= 6.65
s246 - s230 + 8.256029z246z230z3 <= 6.65
s246 - s172 + 8.259726z246z172z3 <= 6.65
s184 - s245 + 7.844612z184z245z1 <= 6.47
s184 - s264 + 7.822497z184z264z1 <= 6.47
s184 - s220 + 7.858589z184z220z1 <= 6.47
s184 - s149 + 7.836162z184z149z1 <= 6.47
s184 - s106 + 7.888032z184z106z1 <= 6.47
s184 - s36 + 7.892313z184z36z1 <= 6.47
s184 - s109 + 7.861990z184z109z1 <= 6.47
s184 - s190 + 7.934468z184z190z1 <= 6.47
s184 - s266 + 7.964387z184z266z1 <= 6.47
s184 - s254 + 7.889482z184z254z1 <= 6.47
s184 - s170 + 7.975917z184z170z1 <= 6.47
s93 - s22 + 8.323947z93z22z2 <= 7.06
s93 - s68 + 8.369389z93z68z2 <= 7.06
s93 - s169 + 8.488589z93z169z2 <= 7.06
s93 - s169 + 8.488589z93z169z3 <= 7.06
s93 - s259 + 8.538158z93z259z3 <= 7.06
s93 - s170 + 8.548538z93z170z2 <= 7.06
s93 - s43 + 8.485451z93z43z3 <= 7.06
s93 - s230 + 8.567888z93z230z3 <= 7.06
s93 - s172 + 8.580858z93z172z3 <= 7.06
s135 - s73 + 8.428530z135z73z3 <= 7.09
s135 - s169 + 8.489717z135z169z3 <= 7.09
s135 - s259 + 8.522085z135z259z3 <= 7.09
s135 - s43 + 8.411359z135z43z3 <= 7.09
s135 - s230 + 8.537887z135z230z3 <= 7.09
s135 - s172 + 8.545337z135z172z3 <= 7.09
s85 - s68 + 8.442642z85z68z2 <= 7.16
s85 - s259 + 8.559775z85z259z3 <= 7.16
s85 - s170 + 8.551949z85z170z2 <= 7.16
s85 - s43 + 8.471793z85z43z3 <= 7.16
s85 - s230 + 8.579235z85z230z3 <= 7.16
s85 - s172 + 8.588376z85z172z3 <= 7.16
s171 - s169 + 8.471098z171z169z3 <= 7.13
s171 - s254 + 8.487845z171z254z1 <= 7.13
s171 - s259 + 8.519240z171z259z3 <= 7.13
s171 - s170 + 8.531619z171z170z1 <= 7.13
s171 - s43 + 8.484848z171z43z3 <= 7.13
s171 - s230 + 8.549292z171z230z3 <= 7.13
s171 - s172 + 8.562817z171z172z3 <= 7.13
s86 - s227 + 7.850362z86z227z2 <= 6.77
s86 - s245 + 7.909927z86z245z2 <= 6.77
s86 - s46 + 7.949420z86z46z2 <= 6.77
s86 - s264 + 8.017608z86z264z2 <= 6.77
s86 - s106 + 7.930000z86z106z2 <= 6.77
s86 - s64 + 8.046967z86z64z2 <= 6.77
s86 - s22 + 8.016415z86z22z2 <= 6.77
s86 - s68 + 8.015307z86z68z2 <= 6.77
s86 - s169 + 8.030106z86z169z2 <= 6.77
s86 - s170 + 8.023041z86z170z2 <= 6.77
s154 - s254 + 8.499827z154z254z1 <= 7.30
s58 - s264 + 7.857713z58z264z1 <= 6.82
s58 - s149 + 7.883245z58z149z1 <= 6.82
s58 - s106 + 8.092112z58z106z1 <= 6.82
s58 - s36 + 8.085498z58z36z1 <= 6.82
s58 - s109 + 8.154996z58z109z1 <= 6.82
s58 - s190 + 8.115898z58z190z1 <= 6.82
s58 - s266 + 8.210156z58z266z1 <= 6.82
s58 - s254 + 8.212655z58z254z1 <= 6.82
s58 - s170 + 8.232365z58z170z1 <= 6.82
s3 - s245 + 7.496768z3z245z1 <= 5.96
s3 - s264 + 7.312527z3z264z1 <= 5.96
s3 - s220 + 7.567031z3z220z1 <= 5.96
s3 - s149 + 7.341743z3z149z1 <= 5.96
s3 - s106 + 7.577545z3z106z1 <= 5.96
s3 - s36 + 7.568797z3z36z1 <= 5.96
s3 - s109 + 7.648412z3z109z1 <= 5.96
s3 - s190 + 7.591573z3z190z1 <= 5.96
s3 - s266 + 7.696074z3z266z1 <= 5.96
s3 - s254 + 7.706198z3z254z1 <= 5.96
s3 - s170 + 7.719279z3z170z1 <= 5.96
s227 - s245 + 8.933246z227z245z2 <= 7.87
s227 - s46 + 8.994543z227z46z2 <= 7.87
s227 - s198 + 8.954328z227z198z3 <= 7.87
s227 - s106 + 8.957686z227z106z2 <= 7.87
s227 - s64 + 9.115945z227z64z2 <= 7.87
s227 - s64 + 9.115945z227z64z3 <= 7.87
s227 - s109 + 8.992928z227z109z3 <= 7.87
s227 - s97 + 9.111661z227z97z3 <= 7.87
s227 - s190 + 9.002832z227z190z3 <= 7.87
s227 - s22 + 9.058561z227z22z2 <= 7.87
s227 - s68 + 9.045372z227z68z2 <= 7.87
s227 - s73 + 9.042047z227z73z3 <= 7.87
s227 - s169 + 9.051965z227z169z2 <= 7.87
s227 - s169 + 9.051965z227z169z3 <= 7.87
s227 - s259 + 9.078380z227z259z3 <= 7.87
s227 - s170 + 9.079231z227z170z2 <= 7.87
s227 - s43 + 9.076989z227z43z3 <= 7.87
s227 - s230 + 9.099104z227z230z3 <= 7.87
s227 - s172 + 9.110924z227z172z3 <= 7.87
s245 - s106 + 9.091377z245z106z1 <= 8.01
s245 - s106 + 9.091377z245z106z2 <= 8.01
s245 - s36 + 9.084536z245z36z1 <= 8.01
s245 - s109 + 9.174655z245z109z1 <= 8.01
s245 - s190 + 9.118526z245z190z1 <= 8.01
s245 - s22 + 9.144990z245z22z2 <= 8.01
s245 - s68 + 9.123529z245z68z2 <= 8.01
s245 - s266 + 9.210000z245z266z1 <= 8.01
s245 - s169 + 9.152517z245z169z2 <= 8.01
s245 - s254 + 9.234103z245z254z1 <= 8.01
s245 - s170 + 9.232811z245z170z1 <= 8.01
s245 - s170 + 9.232811z245z170z2 <= 8.01
s46 - s64 + 9.152330z46z64z2 <= 8.02
s46 - s22 + 9.087000z46z22z2 <= 8.02
s46 - s68 + 9.100278z46z68z2 <= 8.02
s46 - s169 + 9.216187z46z169z2 <= 8.02
s46 - s170 + 9.322289z46z170z2 <= 8.02
s198 - s109 + 9.094975z198z109z3 <= 8.04
s198 - s97 + 9.228797z198z97z3 <= 8.04
s198 - s190 + 9.196205z198z190z3 <= 8.04
s198 - s73 + 9.134751z198z73z3 <= 8.04
s198 - s169 + 9.253437z198z169z3 <= 8.04
s198 - s259 + 9.249231z198z259z3 <= 8.04
s198 - s43 + 9.162928z198z43z3 <= 8.04
s198 - s230 + 9.245373z198z230z3 <= 8.04
s198 - s172 + 9.247632z198z172z3 <= 8.04
s264 - s149 + 9.083994z264z149z1 <= 8.05
s264 - s64 + 9.079815z264z64z2 <= 8.05
s264 - s22 + 9.143571z264z22z2 <= 8.05
s264 - s68 + 9.196818z264z68z2 <= 8.05
s264 - s266 + 9.434188z264z266z1 <= 8.05
s264 - s169 + 9.345146z264z169z2 <= 8.05
s264 - s254 + 9.447604z264z254z1 <= 8.05
s264 - s170 + 9.457158z264z170z1 <= 8.05
s264 - s170 + 9.457158z264z170z2 <= 8.05
s220 - s106 + 9.099813z220z106z1 <= 8.07
s220 - s36 + 9.107712z220z36z1 <= 8.07
s220 - s109 + 9.165452z220z109z1 <= 8.07
s220 - s190 + 9.147746z220z190z1 <= 8.07
s220 - s266 + 9.204164z220z266z1 <= 8.07
s220 - s254 + 9.223911z220z254z1 <= 8.07
s220 - s170 + 9.225492z220z170z1 <= 8.07
s149 - s266 + 9.464338z149z266z1 <= 8.11
s149 - s254 + 9.483869z149z254z1 <= 8.11
s149 - s170 + 9.487595z149z170z1 <= 8.11
s106 - s190 + 9.208074z106z190z1 <= 8.16
s106 - s22 + 9.367096z106z22z2 <= 8.16
s106 - s68 + 9.330880z106z68z2 <= 8.16
s106 - s266 + 9.278696z106z266z1 <= 8.16
s106 - s169 + 9.263709z106z169z2 <= 8.16
s106 - s254 + 9.321245z106z254z1 <= 8.16
s106 - s170 + 9.301735z106z170z1 <= 8.16
s106 - s170 + 9.301735z106z170z2 <= 8.16
s36 - s190 + 9.212164z36z190z1 <= 8.17
s36 - s266 + 9.297367z36z266z1 <= 8.17
s36 - s254 + 9.344483z36z254z1 <= 8.17
s36 - s170 + 9.320849z36z170z1 <= 8.17
s64 - s22 + 9.288526z64z22z2 <= 8.18
s64 - s68 + 9.343435z64z68z2 <= 8.18
s64 - s169 + 9.496930z64z169z2 <= 8.18
s64 - s169 + 9.496930z64z169z3 <= 8.18
s64 - s230 + 9.612666z64z230z3 <= 8.18
s64 - s172 + 9.633383z64z172z3 <= 8.18
s109 - s73 + 9.300772z109z73z3 <= 8.25
s109 - s266 + 9.355410z109z266z1 <= 8.25
s109 - s169 + 9.446978z109z169z3 <= 8.25
s109 - s254 + 9.309628z109z254z1 <= 8.25
s109 - s259 + 9.424483z109z259z3 <= 8.25
s109 - s170 + 9.364115z109z170z1 <= 8.25
s109 - s43 + 9.359949z109z43z3 <= 8.25
s109 - s230 + 9.408464z109z230z3 <= 8.25
s109 - s172 + 9.406915z109z172z3 <= 8.25
s97 - s43 + 9.434632z97z43z3 <= 8.28
s97 - s172 + 9.649744z97z172z3 <= 8.28
s190 - s266 + 9.433333z190z266z1 <= 8.32
s190 - s169 + 9.377349z190z169z3 <= 8.32
s190 - s254 + 9.507734z190z254z1 <= 8.32
s190 - s259 + 9.401103z190z259z3 <= 8.32
s190 - s170 + 9.457274z190z170z1 <= 8.32
s190 - s43 + 9.570953z190z43z3 <= 8.32
s190 - s230 + 9.444007z190z230z3 <= 8.32
s190 - s172 + 9.466211z190z172z3 <= 8.32
s22 - s68 + 9.434975z22z68z2 <= 8.38
s73 - s43 + 9.546012z73z43z3 <= 8.47
s73 - s172 + 9.625492z73z172z3 <= 8.47
s266 - s170 + 9.524037z266z170z1 <= 8.50
s259 - s172 + 9.650677z259z172z3 <= 8.56
s230 - s172 + 9.647488z230z172z3 <= 8.62

x208x227x2 - 1z208z227z2 <= 0
x208x227x3 - 1z208z227z3 <= 0
x208x245x2 - 1z208z245z2 <= 0
x208x46x2 - 2z208z46z2 <= 0
x208x198x3 - 2z208z198z3 <= 0
x208x264x2 - 1z208z264z2 <= 0
x208x106x2 - 1z208z106z2 <= 0
x208x64x2 - 1z208z64z2 <= 0
x208x64x3 - 1z208z64z3 <= 0
x208x109x3 - 1z208z109z3 <= 0
x208x97x3 - 2z208z97z3 <= 0
x208x190x3 - 1z208z190z3 <= 0
x208x22x2 - 2z208z22z2 <= 0
x208x68x2 - 2z208z68z2 <= 0
x208x73x3 - 2z208z73z3 <= 0
x208x169x2 - 1z208z169z2 <= 0
x208x169x3 - 1z208z169z3 <= 0
x208x259x3 - 2z208z259z3 <= 0
x208x170x2 - 1z208z170z2 <= 0
x208x43x3 - 2z208z43z3 <= 0
x208x230x3 - 2z208z230z3 <= 0
x208x172x3 - 2z208z172z3 <= 0
x226x245x2 - 1z226z245z2 <= 0
x226x46x2 - 2z226z46z2 <= 0
x226x264x2 - 1z226z264z2 <= 0
x226x106x2 - 1z226z106z2 <= 0
x226x64x2 - 1z226z64z2 <= 0
x226x22x2 - 2z226z22z2 <= 0
x226x68x2 - 2z226z68z2 <= 0
x226x169x2 - 1z226z169z2 <= 0
x226x170x2 - 1z226z170z2 <= 0
x243x227x3 - 1z243z227z3 <= 0
x243x245x1 - 1z243z245z1 <= 0
x243x198x3 - 2z243z198z3 <= 0
x243x264x1 - 1z243z264z1 <= 0
x243x220x1 - 2z243z220z1 <= 0
x243x149x1 - 2z243z149z1 <= 0
x243x106x1 - 1z243z106z1 <= 0
x243x36x1 - 2z243z36z1 <= 0
x243x64x3 - 1z243z64z3 <= 0
x243x109x1 - 1z243z109z1 <= 0
x243x109x3 - 1z243z109z3 <= 0
x243x97x3 - 2z243z97z3 <= 0
x243x190x1 - 1z243z190z1 <= 0
x243x190x3 - 1z243z190z3 <= 0
x243x73x3 - 2z243z73z3 <= 0
x243x266x1 - 2z243z266z1 <= 0
x243x169x3 - 1z243z169z3 <= 0
x243x254x1 - 2z243z254z1 <= 0
x243x259x3 - 2z243z259z3 <= 0
x243x170x1 - 1z243z170z1 <= 0
x243x43x3 - 2z243z43z3 <= 0
x243x230x3 - 2z243z230z3 <= 0
x243x172x3 - 2z243z172z3 <= 0
x246x264x2 - 1z246z264z2 <= 0
x246x106x2 - 1z246z106z2 <= 0
x246x64x2 - 1z246z64z2 <= 0
x246x64x3 - 1z246z64z3 <= 0
x246x109x3 - 1z246z109z3 <= 0
x246x97x3 - 2z246z97z3 <= 0
x246x190x3 - 1z246z190z3 <= 0
x246x22x2 - 2z246z22z2 <= 0
x246x68x2 - 2z246z68z2 <= 0
x246x73x3 - 2z246z73z3 <= 0
x246x169x2 - 1z246z169z2 <= 0
x246x169x3 - 1z246z169z3 <= 0
x246x259x3 - 2z246z259z3 <= 0
x246x170x2 - 1z246z170z2 <= 0
x246x43x3 - 2z246z43z3 <= 0
x246x230x3 - 2z246z230z3 <= 0
x246x172x3 - 2z246z172z3 <= 0
x184x245x1 - 1z184z245z1 <= 0
x184x264x1 - 1z184z264z1 <= 0
x184x220x1 - 2z184z220z1 <= 0
x184x149x1 - 2z184z149z1 <= 0
x184x106x1 - 1z184z106z1 <= 0
x184x36x1 - 2z184z36z1 <= 0
x184x109x1 - 1z184z109z1 <= 0
x184x190x1 - 1z184z190z1 <= 0
x184x266x1 - 2z184z266z1 <= 0
x184x254x1 - 2z184z254z1 <= 0
x184x170x1 - 1z184z170z1 <= 0
x93x22x2 - 2z93z22z2 <= 0
x93x68x2 - 2z93z68z2 <= 0
x93x169x2 - 1z93z169z2 <= 0
x93x169x3 - 1z93z169z3 <= 0
x93x259x3 - 2z93z259z3 <= 0
x93x170x2 - 1z93z170z2 <= 0
x93x43x3 - 2z93z43z3 <= 0
x93x230x3 - 2z93z230z3 <= 0
x93x172x3 - 2z93z172z3 <= 0
x135x73x3 - 2z135z73z3 <= 0
x135x169x3 - 1z135z169z3 <= 0
x135x259x3 - 2z135z259z3 <= 0
x135x43x3 - 2z135z43z3 <= 0
x135x230x3 - 2z135z230z3 <= 0
x135x172x3 - 2z135z172z3 <= 0
x85x68x2 - 2z85z68z2 <= 0
x85x259x3 - 2z85z259z3 <= 0
x85x170x2 - 1z85z170z2 <= 0
x85x43x3 - 2z85z43z3 <= 0
x85x230x3 - 2z85z230z3 <= 0
x85x172x3 - 2z85z172z3 <= 0
x171x169x3 - 1z171z169z3 <= 0
x171x254x1 - 2z171z254z1 <= 0
x171x259x3 - 2z171z259z3 <= 0
x171x170x1 - 1z171z170z1 <= 0
x171x43x3 - 2z171z43z3 <= 0
x171x230x3 - 2z171z230z3 <= 0
x171x172x3 - 2z171z172z3 <= 0
x86x227x2 - 1z86z227z2 <= 0
x86x245x2 - 1z86z245z2 <= 0
x86x46x2 - 2z86z46z2 <= 0
x86x264x2 - 1z86z264z2 <= 0
x86x106x2 - 1z86z106z2 <= 0
x86x64x2 - 1z86z64z2 <= 0
x86x22x2 - 2z86z22z2 <= 0
x86x68x2 - 2z86z68z2 <= 0
x86x169x2 - 1z86z169z2 <= 0
x86x170x2 - 1z86z170z2 <= 0
x154x254x1 - 2z154z254z1 <= 0
x58x264x1 - 1z58z264z1 <= 0
x58x149x1 - 2z58z149z1 <= 0
x58x106x1 - 1z58z106z1 <= 0
x58x36x1 - 2z58z36z1 <= 0
x58x109x1 - 1z58z109z1 <= 0
x58x190x1 - 1z58z190z1 <= 0
x58x266x1 - 2z58z266z1 <= 0
x58x254x1 - 2z58z254z1 <= 0
x58x170x1 - 1z58z170z1 <= 0
x3x245x1 - 1z3z245z1 <= 0
x3x264x1 - 1z3z264z1 <= 0
x3x220x1 - 2z3z220z1 <= 0
x3x149x1 - 2z3z149z1 <= 0
x3x106x1 - 1z3z106z1 <= 0
x3x36x1 - 2z3z36z1 <= 0
x3x109x1 - 1z3z109z1 <= 0
x3x190x1 - 1z3z190z1 <= 0
x3x266x1 - 2z3z266z1 <= 0
x3x254x1 - 2z3z254z1 <= 0
x3x170x1 - 1z3z170z1 <= 0
x227x245x2 - 1z227z245z2 <= 0
x227x46x2 - 2z227z46z2 <= 0
x227x198x3 - 2z227z198z3 <= 0
x227x106x2 - 1z227z106z2 <= 0
x227x64x2 - 1z227z64z2 <= 0
x227x64x3 - 1z227z64z3 <= 0
x227x109x3 - 1z227z109z3 <= 0
x227x97x3 - 2z227z97z3 <= 0
x227x190x3 - 1z227z190z3 <= 0
x227x22x2 - 2z227z22z2 <= 0
x227x68x2 - 2z227z68z2 <= 0
x227x73x3 - 2z227z73z3 <= 0
x227x169x2 - 1z227z169z2 <= 0
x227x169x3 - 1z227z169z3 <= 0
x227x259x3 - 2z227z259z3 <= 0
x227x170x2 - 1z227z170z2 <= 0
x227x43x3 - 2z227z43z3 <= 0
x227x230x3 - 2z227z230z3 <= 0
x227x172x3 - 2z227z172z3 <= 0
x227x0x2 <= 1
x227x0x3 <= 1
x245x106x1 - 1z245z106z1 <= 0
x245x106x2 - 1z245z106z2 <= 0
x245x36x1 - 2z245z36z1 <= 0
x245x109x1 - 1z245z109z1 <= 0
x245x190x1 - 1z245z190z1 <= 0
x245x22x2 - 2z245z22z2 <= 0
x245x68x2 - 2z245z68z2 <= 0
x245x266x1 - 2z245z266z1 <= 0
x245x169x2 - 1z245z169z2 <= 0
x245x254x1 - 2z245z254z1 <= 0
x245x170x1 - 1z245z170z1 <= 0
x245x170x2 - 1z245z170z2 <= 0
x245x0x1 <= 1
x245x0x2 <= 1
x46x64x2 - 1z46z64z2 <= 0
x46x22x2 - 2z46z22z2 <= 0
x46x68x2 - 2z46z68z2 <= 0
x46x169x2 - 1z46z169z2 <= 0
x46x170x2 - 1z46z170z2 <= 0
x46x0x2 <= 2
x198x109x3 - 1z198z109z3 <= 0
x198x97x3 - 2z198z97z3 <= 0
x198x190x3 - 1z198z190z3 <= 0
x198x73x3 - 2z198z73z3 <= 0
x198x169x3 - 1z198z169z3 <= 0
x198x259x3 - 2z198z259z3 <= 0
x198x43x3 - 2z198z43z3 <= 0
x198x230x3 - 2z198z230z3 <= 0
x198x172x3 - 2z198z172z3 <= 0
x198x0x3 <= 2
x264x149x1 - 2z264z149z1 <= 0
x264x64x2 - 1z264z64z2 <= 0
x264x22x2 - 2z264z22z2 <= 0
x264x68x2 - 2z264z68z2 <= 0
x264x266x1 - 2z264z266z1 <= 0
x264x169x2 - 1z264z169z2 <= 0
x264x254x1 - 2z264z254z1 <= 0
x264x170x1 - 1z264z170z1 <= 0
x264x170x2 - 1z264z170z2 <= 0
x264x0x1 <= 1
x264x0x2 <= 1
x220x106x1 - 1z220z106z1 <= 0
x220x36x1 - 2z220z36z1 <= 0
x220x109x1 - 1z220z109z1 <= 0
x220x190x1 - 1z220z190z1 <= 0
x220x266x1 - 2z220z266z1 <= 0
x220x254x1 - 2z220z254z1 <= 0
x220x170x1 - 1z220z170z1 <= 0
x220x0x1 <= 2
x149x266x1 - 2z149z266z1 <= 0
x149x254x1 - 2z149z254z1 <= 0
x149x170x1 - 1z149z170z1 <= 0
x149x0x1 <= 2
x106x190x1 - 1z106z190z1 <= 0
x106x22x2 - 2z106z22z2 <= 0
x106x68x2 - 2z106z68z2 <= 0
x106x266x1 - 2z106z266z1 <= 0
x106x169x2 - 1z106z169z2 <= 0
x106x254x1 - 2z106z254z1 <= 0
x106x170x1 - 1z106z170z1 <= 0
x106x170x2 - 1z106z170z2 <= 0
x106x0x1 <= 1
x106x0x2 <= 1
x36x190x1 - 1z36z190z1 <= 0
x36x266x1 - 2z36z266z1 <= 0
x36x254x1 - 2z36z254z1 <= 0
x36x170x1 - 1z36z170z1 <= 0
x36x0x1 <= 2
x64x22x2 - 2z64z22z2 <= 0
x64x68x2 - 2z64z68z2 <= 0
x64x169x2 - 1z64z169z2 <= 0
x64x169x3 - 1z64z169z3 <= 0
x64x230x3 - 2z64z230z3 <= 0
x64x172x3 - 2z64z172z3 <= 0
x64x0x2 <= 1
x64x0x3 <= 1
x109x73x3 - 2z109z73z3 <= 0
x109x266x1 - 2z109z266z1 <= 0
x109x169x3 - 1z109z169z3 <= 0
x109x254x1 - 2z109z254z1 <= 0
x109x259x3 - 2z109z259z3 <= 0
x109x170x1 - 1z109z170z1 <= 0
x109x43x3 - 2z109z43z3 <= 0
x109x230x3 - 2z109z230z3 <= 0
x109x172x3 - 2z109z172z3 <= 0
x109x0x1 <= 1
x109x0x3 <= 1
x97x43x3 - 2z97z43z3 <= 0
x97x172x3 - 2z97z172z3 <= 0
x97x0x3 <= 2
x190x266x1 - 2z190z266z1 <= 0
x190x169x3 - 1z190z169z3 <= 0
x190x254x1 - 2z190z254z1 <= 0
x190x259x3 - 2z190z259z3 <= 0
x190x170x1 - 1z190z170z1 <= 0
x190x43x3 - 2z190z43z3 <= 0
x190x230x3 - 2z190z230z3 <= 0
x190x172x3 - 2z190z172z3 <= 0
x190x0x1 <= 1
x190x0x3 <= 1
x22x68x2 - 2z22z68z2 <= 0
x22x0x2 <= 2
x68x0x2 <= 2
x73x43x3 - 2z73z43z3 <= 0
x73x172x3 - 2z73z172z3 <= 0
x73x0x3 <= 2
x266x170x1 - 1z266z170z1 <= 0
x266x0x1 <= 2
x169x0x2 <= 1
x169x0x3 <= 1
x254x0x1 <= 2
x259x172x3 - 2z259z172z3 <= 0
x259x0x3 <= 2
x170x0x1 <= 1
x170x0x2 <= 1
x43x0x3 <= 2
x230x172x3 - 2z230z172z3 <= 0
x230x0x3 <= 2
x172x0x3 <= 2

Bounds
s208 = 6.306705
s226 = 6.475455
s243 = 6.572316
s246 = 6.650719
s184 = 6.474807
s93 = 7.055205
s135 = 7.091220
s85 = 7.158389
s171 = 7.130510
s21 = 7.290773
s86 = 6.774937
s154 = 7.303642
s58 = 6.820000
s3 = 5.963560
6.870000 <= s227 <= 7.870000
7.010000 <= s245 <= 8.010000
7.020000 <= s46 <= 8.020000
7.040000 <= s198 <= 8.040000
7.050000 <= s264 <= 8.050000
7.070000 <= s220 <= 8.070000
7.110000 <= s149 <= 8.110000
7.160000 <= s106 <= 8.160000
7.170000 <= s36 <= 8.170000
7.180000 <= s64 <= 8.180000
7.250000 <= s109 <= 8.250000
7.280000 <= s97 <= 8.280000
7.320000 <= s190 <= 8.320000
7.380000 <= s22 <= 8.380000
7.460000 <= s68 <= 8.460000
7.470000 <= s73 <= 8.470000
7.500000 <= s266 <= 8.500000
7.520000 <= s169 <= 8.520000
7.520000 <= s254 <= 8.520000
7.560000 <= s259 <= 8.560000
7.580000 <= s170 <= 8.580000
7.620000 <= s43 <= 8.620000
7.620000 <= s230 <= 8.620000
7.670000 <= s172 <= 8.670000

General
x208x227x2 x208x227x3 x208x245x2 x208x46x2 x208x198x3 x208x264x2 x208x106x2 x208x64x2 x208x64x3 x208x109x3 x208x97x3 x208x190x3 x208x22x2 x208x68x2 x208x73x3 x208x169x2 x208x169x3 x208x259x3 x208x170x2 x208x43x3 x208x230x3 x208x172x3 
x226x245x2 x226x46x2 x226x264x2 x226x106x2 x226x64x2 x226x22x2 x226x68x2 x226x169x2 x226x170x2 
x243x227x3 x243x245x1 x243x198x3 x243x264x1 x243x220x1 x243x149x1 x243x106x1 x243x36x1 x243x64x3 x243x109x1 x243x109x3 x243x97x3 x243x190x1 x243x190x3 x243x73x3 x243x266x1 x243x169x3 x243x254x1 x243x259x3 x243x170x1 x243x43x3 x243x230x3 x243x172x3 
x246x264x2 x246x106x2 x246x64x2 x246x64x3 x246x109x3 x246x97x3 x246x190x3 x246x22x2 x246x68x2 x246x73x3 x246x169x2 x246x169x3 x246x259x3 x246x170x2 x246x43x3 x246x230x3 x246x172x3 
x184x245x1 x184x264x1 x184x220x1 x184x149x1 x184x106x1 x184x36x1 x184x109x1 x184x190x1 x184x266x1 x184x254x1 x184x170x1 
x93x22x2 x93x68x2 x93x169x2 x93x169x3 x93x259x3 x93x170x2 x93x43x3 x93x230x3 x93x172x3 
x135x73x3 x135x169x3 x135x259x3 x135x43x3 x135x230x3 x135x172x3 
x85x68x2 x85x259x3 x85x170x2 x85x43x3 x85x230x3 x85x172x3 
x171x169x3 x171x254x1 x171x259x3 x171x170x1 x171x43x3 x171x230x3 x171x172x3 

x86x227x2 x86x245x2 x86x46x2 x86x264x2 x86x106x2 x86x64x2 x86x22x2 x86x68x2 x86x169x2 x86x170x2 
x154x254x1 
x58x264x1 x58x149x1 x58x106x1 x58x36x1 x58x109x1 x58x190x1 x58x266x1 x58x254x1 x58x170x1 
x3x245x1 x3x264x1 x3x220x1 x3x149x1 x3x106x1 x3x36x1 x3x109x1 x3x190x1 x3x266x1 x3x254x1 x3x170x1 
x227x245x2 x227x46x2 x227x198x3 x227x106x2 x227x64x2 x227x64x3 x227x109x3 x227x97x3 x227x190x3 x227x22x2 x227x68x2 x227x73x3 x227x169x2 x227x169x3 x227x259x3 x227x170x2 x227x43x3 x227x230x3 x227x172x3 x227x0x2 x227x0x3 
x245x106x1 x245x106x2 x245x36x1 x245x109x1 x245x190x1 x245x22x2 x245x68x2 x245x266x1 x245x169x2 x245x254x1 x245x170x1 x245x170x2 x245x0x1 x245x0x2 
x46x64x2 x46x22x2 x46x68x2 x46x169x2 x46x170x2 x46x0x2 
x198x109x3 x198x97x3 x198x190x3 x198x73x3 x198x169x3 x198x259x3 x198x43x3 x198x230x3 x198x172x3 x198x0x3 
x264x149x1 x264x64x2 x264x22x2 x264x68x2 x264x266x1 x264x169x2 x264x254x1 x264x170x1 x264x170x2 x264x0x1 x264x0x2 
x220x106x1 x220x36x1 x220x109x1 x220x190x1 x220x266x1 x220x254x1 x220x170x1 x220x0x1 
x149x266x1 x149x254x1 x149x170x1 x149x0x1 
x106x190x1 x106x22x2 x106x68x2 x106x266x1 x106x169x2 x106x254x1 x106x170x1 x106x170x2 x106x0x1 x106x0x2 
x36x190x1 x36x266x1 x36x254x1 x36x170x1 x36x0x1 
x64x22x2 x64x68x2 x64x169x2 x64x169x3 x64x230x3 x64x172x3 x64x0x2 x64x0x3 
x109x73x3 x109x266x1 x109x169x3 x109x254x1 x109x259x3 x109x170x1 x109x43x3 x109x230x3 x109x172x3 x109x0x1 x109x0x3 
x97x43x3 x97x172x3 x97x0x3 
x190x266x1 x190x169x3 x190x254x1 x190x259x3 x190x170x1 x190x43x3 x190x230x3 x190x172x3 x190x0x1 x190x0x3 
x22x68x2 x22x0x2 
x68x0x2 
x73x43x3 x73x172x3 x73x0x3 
x266x170x1 x266x0x1 
x169x0x2 x169x0x3 
x254x0x1 
x259x172x3 x259x0x3 
x170x0x1 x170x0x2 
x43x0x3 
x230x172x3 x230x0x3 
x172x0x3 

Binaries
y227 y245 y46 y198 y264 y220 y149 y106 y36 y64 y109 y97 y190 y22 y68 y73 y266 y169 y254 y259 y170 y43 y230 y172 
z208z227z2 z208z227z3 z208z245z2 z208z46z2 z208z198z3 z208z264z2 z208z106z2 z208z64z2 z208z64z3 z208z109z3 z208z97z3 z208z190z3 z208z22z2 z208z68z2 z208z73z3 z208z169z2 z208z169z3 z208z259z3 z208z170z2 z208z43z3 z208z230z3 z208z172z3 
z226z245z2 z226z46z2 z226z264z2 z226z106z2 z226z64z2 z226z22z2 z226z68z2 z226z169z2 z226z170z2 
z243z227z3 z243z245z1 z243z198z3 z243z264z1 z243z220z1 z243z149z1 z243z106z1 z243z36z1 z243z64z3 z243z109z1 z243z109z3 z243z97z3 z243z190z1 z243z190z3 z243z73z3 z243z266z1 z243z169z3 z243z254z1 z243z259z3 z243z170z1 z243z43z3 z243z230z3 z243z172z3 
z246z264z2 z246z106z2 z246z64z2 z246z64z3 z246z109z3 z246z97z3 z246z190z3 z246z22z2 z246z68z2 z246z73z3 z246z169z2 z246z169z3 z246z259z3 z246z170z2 z246z43z3 z246z230z3 z246z172z3 
z184z245z1 z184z264z1 z184z220z1 z184z149z1 z184z106z1 z184z36z1 z184z109z1 z184z190z1 z184z266z1 z184z254z1 z184z170z1 
z93z22z2 z93z68z2 z93z169z2 z93z169z3 z93z259z3 z93z170z2 z93z43z3 z93z230z3 z93z172z3 
z135z73z3 z135z169z3 z135z259z3 z135z43z3 z135z230z3 z135z172z3 
z85z68z2 z85z259z3 z85z170z2 z85z43z3 z85z230z3 z85z172z3 
z171z169z3 z171z254z1 z171z259z3 z171z170z1 z171z43z3 z171z230z3 z171z172z3 

z86z227z2 z86z245z2 z86z46z2 z86z264z2 z86z106z2 z86z64z2 z86z22z2 z86z68z2 z86z169z2 z86z170z2 
z154z254z1 
z58z264z1 z58z149z1 z58z106z1 z58z36z1 z58z109z1 z58z190z1 z58z266z1 z58z254z1 z58z170z1 
z3z245z1 z3z264z1 z3z220z1 z3z149z1 z3z106z1 z3z36z1 z3z109z1 z3z190z1 z3z266z1 z3z254z1 z3z170z1 
z227z245z2 z227z46z2 z227z198z3 z227z106z2 z227z64z2 z227z64z3 z227z109z3 z227z97z3 z227z190z3 z227z22z2 z227z68z2 z227z73z3 z227z169z2 z227z169z3 z227z259z3 z227z170z2 z227z43z3 z227z230z3 z227z172z3 
z245z106z1 z245z106z2 z245z36z1 z245z109z1 z245z190z1 z245z22z2 z245z68z2 z245z266z1 z245z169z2 z245z254z1 z245z170z1 z245z170z2 
z46z64z2 z46z22z2 z46z68z2 z46z169z2 z46z170z2 
z198z109z3 z198z97z3 z198z190z3 z198z73z3 z198z169z3 z198z259z3 z198z43z3 z198z230z3 z198z172z3 
z264z149z1 z264z64z2 z264z22z2 z264z68z2 z264z266z1 z264z169z2 z264z254z1 z264z170z1 z264z170z2 
z220z106z1 z220z36z1 z220z109z1 z220z190z1 z220z266z1 z220z254z1 z220z170z1 
z149z266z1 z149z254z1 z149z170z1 
z106z190z1 z106z22z2 z106z68z2 z106z266z1 z106z169z2 z106z254z1 z106z170z1 z106z170z2 
z36z190z1 z36z266z1 z36z254z1 z36z170z1 
z64z22z2 z64z68z2 z64z169z2 z64z169z3 z64z230z3 z64z172z3 
z109z73z3 z109z266z1 z109z169z3 z109z254z1 z109z259z3 z109z170z1 z109z43z3 z109z230z3 z109z172z3 
z97z43z3 z97z172z3 
z190z266z1 z190z169z3 z190z254z1 z190z259z3 z190z170z1 z190z43z3 z190z230z3 z190z172z3 
z22z68z2 

z73z43z3 z73z172z3 
z266z170z1 


z259z172z3 


z230z172z3 


End